15 16 17 52 0 33 55 34 1 3 48 31 2 13 35 4 6 5 47 30 46 29 49 45 44 53 43 28 26 25 42 22 41 21 50 54 27 23 24 40 20 18 39 10 12 14 51 7 32 8 36 9 37 11 38 19 15 
1947
51
15 16 17 14 0 33 55 34 31 3 48 1 2 13 35 4 6 5 47 45 44 28 53 43 23 54 27 49 30 46 29 52 26 25 42 22 41 21 50 24 40 20 18 39 10 12 51 7 32 8 36 9 37 11 38 19 15 
1945
2257
15 17 16 26 52 0 33 2 14 12 13 35 4 6 5 47 53 43 44 28 23 54 27 49 45 30 46 55 34 1 3 48 31 29 25 24 42 41 21 50 22 40 20 18 39 38 10 32 7 8 51 37 36 9 11 19 15 
1942
2447
15 16 17 52 0 33 2 12 14 13 35 4 6 5 47 28 53 43 44 29 20 40 42 21 22 41 50 23 54 27 49 45 30 46 55 34 1 3 31 48 26 25 24 18 39 51 10 7 32 8 36 9 37 11 38 19 15 
1936
2540
15 17 16 12 13 35 4 6 5 47 44 28 53 43 24 20 40 42 21 22 41 50 23 54 27 49 45 30 46 1 3 48 2 14 52 0 33 55 34 31 29 26 25 18 39 38 51 10 32 8 7 36 37 9 11 19 15 
1933
2782
15 17 16 12 14 13 35 4 6 5 47 44 28 53 43 23 40 20 42 21 22 41 50 54 27 49 45 30 46 1 3 48 2 52 0 33 55 34 31 29 26 25 24 18 39 38 10 51 32 8 7 36 9 37 11 19 15 
1928
2785
15 17 16 12 13 35 4 6 5 47 53 43 44 28 29 52 42 22 41 21 50 23 54 27 49 45 30 46 34 1 3 48 31 55 2 14 26 0 33 25 24 20 40 18 39 38 51 10 7 32 8 36 9 37 11 19 15 
1910
2915
15 16 17 12 14 13 35 4 6 5 47 53 43 44 28 29 0 33 26 52 42 21 22 41 50 23 54 27 49 45 30 46 34 1 3 48 31 55 2 25 24 20 40 18 39 51 10 32 8 7 36 9 37 11 38 19 15 
1909
2920
15 17 16 14 52 0 33 34 1 2 13 35 4 6 5 47 28 53 43 44 29 26 25 24 42 22 41 21 50 23 54 27 49 45 30 46 55 31 48 3 12 51 10 32 7 8 36 37 9 11 38 20 40 18 39 19 15 
1907
3811
15 16 17 0 33 2 52 14 10 32 8 7 51 13 35 4 6 5 47 44 28 53 43 29 26 25 24 42 22 41 21 50 23 54 27 49 45 30 46 55 34 31 48 3 1 12 39 37 36 9 11 38 18 20 40 19 15 
1900
4027
15 16 17 52 0 33 2 14 39 10 32 8 36 9 37 12 51 13 35 4 6 5 48 31 47 44 28 53 43 29 26 25 24 42 22 41 21 50 23 54 27 49 45 30 46 55 34 1 3 7 11 38 40 20 18 19 15 
1889
4130
15 16 17 12 39 37 10 51 13 35 6 5 48 31 47 44 53 43 28 29 25 24 42 21 22 40 20 41 50 23 54 27 49 45 30 46 55 34 1 2 14 52 26 0 33 3 4 7 32 8 36 9 11 38 18 19 15 
1876
5551
15 16 17 52 0 33 2 13 35 6 5 47 48 31 28 53 43 44 29 25 24 42 21 22 41 50 23 54 27 49 45 30 46 55 34 1 3 4 7 32 8 36 9 37 10 51 12 39 11 38 14 26 20 40 18 19 15 
1861
6530
15 16 17 52 0 33 34 1 2 13 35 6 5 47 44 28 53 43 29 26 25 24 42 21 22 41 50 23 54 27 49 45 30 46 55 31 48 3 4 7 14 10 32 8 36 9 37 51 12 39 11 38 18 20 40 19 15 
1855
6737
15 16 17 52 0 33 55 1 2 13 35 4 6 5 47 44 28 53 43 29 26 25 24 42 22 41 21 50 23 54 27 49 45 30 46 34 31 48 3 7 32 8 9 37 36 11 38 10 51 14 12 39 18 20 40 19 15 
1844
6859
15 16 17 0 33 2 13 35 4 6 5 47 28 53 43 44 29 52 26 25 24 42 21 22 41 50 23 54 27 49 45 30 46 34 48 31 55 1 3 7 32 8 36 37 9 11 38 10 51 14 12 39 18 20 40 19 15 
1842
6888
15 16 17 26 52 0 33 1 2 13 35 4 6 5 47 44 53 43 28 29 25 24 20 40 42 21 22 41 50 23 54 27 49 45 30 46 55 34 31 48 3 7 32 8 36 37 9 10 14 51 12 39 38 11 18 19 15 
1835
7093
15 17 16 52 26 0 33 2 14 12 39 38 51 10 13 35 6 5 48 31 47 44 53 43 28 29 25 24 20 40 42 21 22 41 50 23 54 27 49 45 30 46 55 34 1 3 4 7 32 8 36 9 37 11 18 19 15 
1830
7615
15 16 17 52 0 33 2 14 12 51 13 35 6 5 48 31 47 44 53 43 28 29 26 25 24 42 21 22 41 50 23 54 27 49 45 30 46 55 34 1 3 4 7 32 8 36 37 9 10 11 20 40 18 39 38 19 15 
1827
8215
15 16 17 0 33 2 14 13 35 4 6 5 47 44 53 43 28 29 52 26 25 24 42 22 41 21 50 23 54 27 49 45 30 46 55 34 31 48 1 3 7 32 8 36 9 37 11 38 10 51 12 39 18 20 40 19 15 
1815
8558
15 16 17 52 0 33 1 2 14 13 35 4 6 5 47 44 53 43 28 29 26 25 24 42 21 22 40 20 41 50 23 54 27 49 45 30 46 55 34 31 48 3 7 32 8 36 37 9 10 51 12 39 11 38 18 19 15 
1799
8607
15 16 17 52 0 33 2 13 35 4 6 5 47 48 31 44 28 53 43 29 26 25 24 42 21 22 40 20 41 50 23 54 27 49 45 30 46 55 34 1 3 7 32 8 36 37 9 11 38 10 51 14 12 39 18 19 15 
1797
9205
15 16 17 52 0 33 2 13 35 4 6 5 47 48 31 44 28 53 43 29 26 25 24 42 21 22 40 20 41 50 23 54 27 49 45 30 46 55 34 1 3 7 32 8 36 37 9 11 38 10 51 14 12 39 18 19 15 
1797
9205



15 16 17 26 0 33 2 13 35 4 6 5 47 30 46 55 34 1 3 48 31 27 49 45 44 28 53 43 29 52 25 24 42 22 41 21 50 23 54 40 20 18 39 38 14 12 51 32 8 7 10 37 36 9 11 19 15 
1944
101
15 16 17 52 0 33 2 13 35 4 6 5 47 30 46 55 34 1 3 48 31 27 49 45 44 28 53 43 29 26 25 24 42 22 41 21 50 23 54 20 40 18 39 38 10 32 7 8 36 37 9 51 12 14 11 19 15 
1926
126
15 16 17 52 0 33 2 13 35 4 6 5 47 31 46 55 34 1 3 48 29 27 49 45 44 28 53 43 30 26 25 24 42 22 41 21 50 54 23 40 20 18 39 12 14 51 10 32 7 8 36 37 9 11 38 19 15 
1920
1188
15 16 17 52 0 33 2 13 35 4 6 5 47 30 46 55 34 1 3 48 31 29 27 49 45 44 53 43 28 26 25 24 42 50 23 54 22 41 21 40 20 18 39 38 14 12 51 10 7 32 8 36 37 9 11 19 15 
1919
2019
15 17 16 52 0 33 2 13 35 4 6 5 47 30 55 34 1 3 48 31 46 29 49 45 53 43 44 28 26 25 24 42 21 22 41 50 23 54 27 40 20 18 39 10 51 14 12 7 32 8 36 37 9 11 38 19 15 
1913
4577
15 16 17 52 0 33 2 13 35 4 6 5 47 30 55 34 1 3 48 31 46 49 45 44 28 53 43 29 26 25 24 42 21 22 41 50 23 54 27 20 40 18 39 14 12 10 51 32 7 8 36 9 37 11 38 19 15 
1904
4926
15 16 17 52 0 33 2 13 35 4 6 5 47 30 55 34 1 3 48 31 46 49 45 44 28 53 43 29 26 25 24 42 21 22 41 50 23 54 27 20 40 18 39 14 12 10 51 32 7 8 36 9 37 11 38 19 15 
1904
4926



